$comment
CHB6-25
$end

$molecule
1 1
--
1 1
Li     0.13264924      0.24835275      1.29356240
--
0 1
C      0.12783358      1.52167097     -0.71020886
C     -1.11618867      0.85156686     -0.63398202
C     -1.15478517     -0.55923775     -0.53114258
C      0.05064658     -1.29995701     -0.50448707
C      1.29467927     -0.62985335     -0.58060630
C      1.33327260      0.78095795     -0.68347284
H      2.22615477     -1.20257903     -0.56427880
H      2.29457156      1.29849347     -0.74663942
H      0.15756124      2.61162294     -0.79415915
H     -2.04785457      1.42366814     -0.65898704
H     -2.11627346     -1.07741082     -0.47671133
H      0.02072735     -2.39055355     -0.42945055
$end

$rem
JOBTYPE			EDA
EDA2			1
method			wB97X-V
BASIS			def2-TZVPD
XC_GRID			000099000590
NL_GRID			1
UNRESTRICTED		FALSE
MAX_SCF_CYCLES		200
SYMMETRY		FALSE
SYM_IGNORE		TRUE
MEM_STATIC		2000
BASIS_LIN_DEP_THRESH 	6
THRESH 			14
SCF_CONVERGENCE 	8
SCF_PRINT_FRGM 		TRUE
$end
