$comment
AHB21-1
$end

$molecule
-1 1
--
-1 1
F     -0.20511594      1.19194574     -0.69629013
--
0 1
N     -1.07146819     -0.00912580      1.50279456
H     -0.61757278     -0.91698377      1.47414861
H     -0.60090013      0.48687624      2.25355584
H     -0.76307217      0.48318498      0.60817267
$end

$rem
JOBTYPE			EDA
EDA2			1
method			wB97X-V
BASIS			def2-TZVPD
XC_GRID			000099000590
NL_GRID			1
UNRESTRICTED		FALSE
MAX_SCF_CYCLES		200
SYMMETRY		FALSE
SYM_IGNORE		TRUE
MEM_STATIC		2000
BASIS_LIN_DEP_THRESH 	6
THRESH 			14
SCF_CONVERGENCE 	8
SCF_PRINT_FRGM 		TRUE
$end
