$comment
CHB6-22
$end

$molecule
1 1
--
1 1
Li    -0.40901490     -1.91403816      0.08129152
--
0 1
O      0.39025099     -0.23649653     -0.02176730
H      1.33196180     -0.03790787     -0.09509831
H     -0.04708940      0.62390834     -0.01348025
$end

$rem
JOBTYPE			EDA
EDA2			1
method			wB97X-V
BASIS			def2-TZVPD
XC_GRID			000099000590
NL_GRID			1
UNRESTRICTED		FALSE
MAX_SCF_CYCLES		200
SYMMETRY		FALSE
SYM_IGNORE		TRUE
MEM_STATIC		2000
BASIS_LIN_DEP_THRESH 	6
THRESH 			14
SCF_CONVERGENCE 	8
SCF_PRINT_FRGM 		TRUE
$end
