$comment
AHB21-2
$end

$molecule
-1 1
--
-1 1
F    -1.236389     0.012239     0.000000
--
0 1
O     1.197566    -0.108087     0.000000
H     1.415397     0.827014     0.000000
H     0.134830    -0.084378     0.000000
$end

$rem
JOBTYPE			EDA
EDA2			1
method			wB97X-V
BASIS			def2-TZVPD
XC_GRID			000099000590
NL_GRID			1
UNRESTRICTED		FALSE
MAX_SCF_CYCLES		200
SYMMETRY		FALSE
SYM_IGNORE		TRUE
MEM_STATIC		2000
BASIS_LIN_DEP_THRESH 	6
THRESH 			14
SCF_CONVERGENCE 	8
SCF_PRINT_FRGM 		TRUE
$end
