$comment
AHB21-3
$end

$molecule
-1 1
--
-1 1
F     -2.39910643      1.11119678      0.01465458
--
0 1
H     -3.54179452      1.07049297     -0.03082482
F     -4.68327749      1.02774471     -0.07858853
$end

$rem
JOBTYPE			EDA
EDA2			1
method			wB97X-V
BASIS			def2-TZVPD
XC_GRID			000099000590
NL_GRID			1
UNRESTRICTED		FALSE
MAX_SCF_CYCLES		200
SYMMETRY		FALSE
SYM_IGNORE		TRUE
MEM_STATIC		2000
BASIS_LIN_DEP_THRESH 	6
THRESH 			14
SCF_CONVERGENCE 	8
SCF_PRINT_FRGM 		TRUE
$end
