$comment
IL16-152
$end

$molecule
0 1
--
-1 1
O         -2.11622       -0.99148        3.11186
Cl        -3.04985        0.18536        2.89080
O         -2.51683        0.95604        1.71473
O         -4.39202       -0.32144        2.59170
O         -3.04239        1.04017        4.08108
--
1 1
C          1.29137        0.23958       -0.37258
N          0.06441       -0.21103        0.11086
C          0.12791       -0.33417        1.44769
N          1.37449        0.01781        1.81527
C          2.12175        0.38925        0.70222
C         -1.14252       -0.48623       -0.69657
H          1.69219        0.01781        2.78160
H         -0.69597       -0.65558        2.11727
H          3.14463        0.72860        0.77021
H          1.45832        0.42226       -1.42441
H         -1.06564       -1.48704       -1.13386
H         -2.01311       -0.39977       -0.04122
H         -1.21192        0.26794       -1.48622
$end

$rem
JOBTYPE			EDA
EDA2			1
method			wB97X-V
BASIS			def2-TZVPD
XC_GRID			000099000590
NL_GRID			1
UNRESTRICTED		FALSE
MAX_SCF_CYCLES		200
SYMMETRY		FALSE
SYM_IGNORE		TRUE
MEM_STATIC		2000
BASIS_LIN_DEP_THRESH 	6
THRESH 			14
SCF_CONVERGENCE 	8
SCF_PRINT_FRGM 		TRUE
$end
